benchmarks/bfuzz0/90102426819205270622116610702116969155.smt2
(set-logic QF_FP)
(declare-const x0 (_ FloatingPoint 8 24))
(declare-const x1 (_ FloatingPoint 8 24))
(declare-const x2 (_ FloatingPoint 8 24))
(declare-const x3 (_ FloatingPoint 8 24))
(declare-const x4 (_ FloatingPoint 8 24))
(declare-const x5 (_ FloatingPoint 8 24))
(declare-const x6 (_ FloatingPoint 8 24))
(declare-const x7 (_ FloatingPoint 8 24))
(declare-const x8 (_ FloatingPoint 8 24))
(assert (fp.leq (fp.mul RNE (fp.add RNE (fp.neg (fp.sub RNE x3 x6)) (fp.div RNE (fp.mul RNE x7 x3) (fp.add RNE x4 x7))) (fp.add RNE (fp.mul RNE (fp.sub RNE x8 x7) (fp.mul RNE x0 x8)) (fp.add RNE (fp.neg x4) (fp.sub RNE x4 x8)))) (fp.mul RNE (fp.neg (fp.sub RNE (fp.div RNE x2 x0) (fp.sub RNE x5 x4))) (fp.div RNE (fp.sub RNE (fp.div RNE x8 x2) (fp.add RNE x5 x7)) (fp.mul RNE (fp.div RNE x8 x1) (fp.add RNE x8 x8))))))
(check-sat)
