db/data/90102426819205270622116610702116969155.z3.out
sat
-------------------
42.634649372
